NAME          COPTPROB
OBJSENSE
  MIN
ROWS
 N  __OBJ___
 L  C2      
 L  C8      
 L  C9      
 L  C10     
 L  C11     
 L  C12     
 L  C13     
 L  C14     
 L  C16     
 L  C17     
 L  C20     
 L  C21     
 L  C22     
 L  C23     
 L  C24     
 L  C25     
 L  C26     
 L  C27     
 L  C29     
 L  C30     
 L  C31     
 L  C32     
 L  C33     
 L  C34     
 L  C36     
 L  C37     
 L  C39     
 L  C40     
 L  C41     
 L  C42     
 L  C43     
 L  C46     
 L  C48     
 L  C50     
 L  C53     
 L  C54     
 L  C58     
 L  C59     
 L  C60     
 L  C61     
 L  C63     
 L  C65     
 L  C66     
 L  C69     
 L  C71     
 L  C72     
 L  C73     
 L  C74     
 L  C76     
 L  C77     
 L  C80     
 L  C81     
 L  C82     
 L  C83     
 L  C92     
 L  C93     
 L  C96     
 L  C97     
 L  C99     
 L  C102    
 L  C104    
 L  C105    
 L  C108    
 L  C110    
 L  C113    
 L  C114    
 L  C118    
 L  C119    
 L  C120    
 L  C121    
 L  C122    
 L  C123    
 L  C124    
 L  C125    
 L  C126    
 L  C127    
 L  C128    
 L  C131    
 L  C132    
 L  C133    
 L  C134    
 L  C135    
 L  C137    
 L  C139    
 L  C141    
 L  C143    
 L  C146    
 L  C150    
 L  C151    
 L  C154    
 L  C157    
 L  C159    
 L  C161    
 L  C162    
 L  C164    
 L  C165    
 L  C166    
 L  C168    
 L  C170    
 L  C171    
 L  C172    
 L  C173    
 L  C174    
 L  C177    
 L  C178    
 L  C179    
 L  C180    
 L  C182    
 L  C183    
 L  C184    
 L  C186    
 L  C187    
 L  C189    
 L  C191    
 L  C192    
 L  C193    
 L  C196    
 L  C199    
 L  C201    
 L  C203    
 L  C207    
 L  C208    
 L  C209    
 L  C212    
 L  C213    
 L  C214    
 L  C216    
 L  C219    
 L  C220    
 L  C221    
 L  C222    
 L  C223    
 L  C225    
 L  C227    
 L  C228    
 L  C232    
 L  C235    
 L  C236    
 L  C240    
 L  C242    
 L  C243    
 L  C246    
 L  C247    
 L  C248    
 L  C249    
 L  C253    
 L  C258    
 L  C260    
 L  C263    
 L  C264    
 L  C267    
 L  C269    
 L  C270    
 L  C273    
 L  C275    
 L  C276    
 L  C277    
 L  C279    
 L  C281    
 L  C282    
 L  C283    
 L  C287    
 L  C289    
 L  C290    
 L  C291    
 L  C292    
 L  C294    
 L  C298    
 L  C301    
 L  C302    
 L  C306    
 L  C307    
 L  C309    
 L  C312    
 L  C315    
 L  C317    
 L  C318    
 L  C319    
 L  C320    
 L  C323    
 L  C324    
 L  C325    
 L  C326    
 L  C327    
 L  C330    
 L  C331    
 L  C332    
 L  C335    
 L  C336    
 L  C339    
 L  C340    
 L  C341    
 L  C343    
 L  C344    
 L  C345    
 L  C346    
 L  C347    
 L  C353    
 L  C354    
 L  C355    
 L  C359    
 L  C361    
 L  C364    
 L  C365    
 L  C366    
 L  C367    
 L  C370    
 L  C372    
 L  C376    
 L  C377    
 L  C379    
 L  C381    
 L  C383    
 L  C384    
 L  C385    
 L  C386    
 L  C387    
 L  C390    
 L  C391    
 L  C393    
 L  C394    
 L  C395    
 L  C396    
 L  C398    
 L  C401    
 L  C403    
 L  C407    
 L  C408    
 L  C410    
 L  C411    
 L  C412    
 L  C413    
 L  C415    
 L  C416    
 L  C420    
 L  C423    
 L  C425    
 L  C427    
 L  C428    
 L  C429    
 L  C433    
 L  C436    
 L  C437    
 L  C438    
 L  C441    
 L  C442    
 L  C443    
 L  C444    
 L  C445    
 L  C446    
 L  C447    
 L  C449    
 L  C450    
 L  C451    
 L  C454    
 L  C455    
 L  C460    
 L  C462    
 L  C466    
 L  C467    
 L  C472    
 L  C473    
 L  C475    
 L  C476    
 L  C477    
 L  C480    
 L  C481    
 L  C483    
 L  C485    
 L  C486    
 L  C489    
 L  C490    
 L  C491    
 L  C492    
 L  C493    
 L  C497    
 L  C499    
 L  C500    
 L  C502    
 L  C506    
 L  C508    
 L  C509    
 L  C510    
 L  C511    
 L  C514    
 L  C515    
 L  C517    
 L  C519    
 L  C520    
 L  C524    
 L  C527    
 L  C528    
 L  C531    
 L  C532    
 L  C533    
 L  C534    
 L  C535    
 L  C536    
 L  C537    
 L  C538    
 L  C539    
 L  C540    
 L  C541    
 L  C542    
 L  C543    
 L  C544    
 L  C545    
 L  C546    
 L  C547    
 L  C549    
 L  C550    
 L  C551    
 L  C552    
 L  C553    
 L  C554    
 L  C556    
 L  C557    
 L  C558    
 L  C559    
 L  C561    
COLUMNS
    MARKER    'MARKER'                 'INTORG'
    x3        __OBJ___  -1
    x3        C2        1
    x3        C27       1
    x3        C43       1
    x3        C110      1
    x3        C123      1
    x3        C132      1
    x3        C199      1
    x3        C331      1
    x3        C367      1
    x3        C412      1
    x3        C423      1
    x3        C445      1
    x4        __OBJ___  -1
    x4        C13       1
    x4        C41       1
    x4        C66       1
    x4        C125      1
    x4        C154      1
    x4        C159      1
    x4        C214      1
    x4        C225      1
    x4        C228      1
    x4        C283      1
    x4        C290      1
    x4        C335      1
    x4        C341      1
    x4        C383      1
    x4        C401      1
    x4        C438      1
    x4        C446      1
    x4        C475      1
    x4        C534      1
    x7        __OBJ___  -1
    x7        C11       1
    x7        C13       1
    x7        C29       1
    x7        C32       1
    x7        C39       1
    x7        C66       1
    x7        C69       1
    x7        C80       1
    x7        C108      1
    x7        C125      1
    x7        C173      1
    x7        C177      1
    x7        C187      1
    x7        C208      1
    x7        C213      1
    x7        C220      1
    x7        C253      1
    x7        C289      1
    x7        C343      1
    x7        C376      1
    x7        C420      1
    x7        C433      1
    x7        C455      1
    x7        C489      1
    x7        C554      1
    x9        __OBJ___  -1
    x9        C53       1
    x9        C82       1
    x9        C134      1
    x9        C150      1
    x9        C208      1
    x9        C220      1
    x9        C264      1
    x9        C307      1
    x9        C353      1
    x9        C481      1
    x9        C491      1
    x9        C511      1
    x9        C524      1
    x10       __OBJ___  -1
    x10       C46       1
    x10       C50       1
    x10       C60       1
    x10       C93       1
    x10       C96       1
    x10       C151      1
    x10       C157      1
    x10       C199      1
    x10       C260      1
    x10       C365      1
    x10       C370      1
    x10       C442      1
    x10       C510      1
    x10       C528      1
    x10       C540      1
    x10       C556      1
    x11       __OBJ___  -1
    x11       C36       1
    x11       C61       1
    x11       C120      1
    x11       C123      1
    x11       C179      1
    x11       C242      1
    x11       C346      1
    x11       C376      1
    x11       C433      1
    x11       C454      1
    x11       C544      1
    x12       __OBJ___  -1
    x12       C11       1
    x12       C207      1
    x12       C263      1
    x12       C289      1
    x12       C359      1
    x12       C433      1
    x12       C437      1
    x12       C466      1
    x12       C508      1
    x12       C510      1
    x12       C549      1
    x13       __OBJ___  -1
    x13       C132      1
    x13       C141      1
    x13       C189      1
    x13       C199      1
    x13       C267      1
    x13       C415      1
    x13       C446      1
    x14       __OBJ___  -1
    x14       C165      1
    x14       C247      1
    x14       C413      1
    x14       C455      1
    x14       C540      1
    x16       __OBJ___  -1
    x16       C16       1
    x16       C124      1
    x16       C133      1
    x16       C164      1
    x16       C192      1
    x16       C267      1
    x16       C276      1
    x16       C292      1
    x16       C317      1
    x16       C330      1
    x16       C345      1
    x16       C353      1
    x16       C355      1
    x16       C483      1
    x16       C490      1
    x16       C536      1
    x17       __OBJ___  -1
    x17       C131      1
    x17       C173      1
    x17       C287      1
    x17       C312      1
    x17       C376      1
    x17       C425      1
    x17       C442      1
    x17       C480      1
    x17       C511      1
    x17       C535      1
    x18       __OBJ___  -1
    x18       C41       1
    x18       C76       1
    x18       C137      1
    x18       C264      1
    x18       C290      1
    x18       C306      1
    x18       C412      1
    x18       C445      1
    x18       C450      1
    x18       C531      1
    x19       __OBJ___  -1
    x19       C41       1
    x19       C114      1
    x19       C168      1
    x19       C325      1
    x19       C387      1
    x19       C445      1
    x19       C476      1
    x19       C485      1
    x20       __OBJ___  -1
    x20       C8        1
    x20       C125      1
    x20       C162      1
    x20       C173      1
    x20       C187      1
    x20       C213      1
    x20       C269      1
    x20       C379      1
    x20       C385      1
    x22       __OBJ___  -1
    x22       C54       1
    x22       C83       1
    x22       C121      1
    x22       C364      1
    x22       C366      1
    x22       C451      1
    x22       C485      1
    x22       C546      1
    x23       __OBJ___  -1
    x23       C11       1
    x23       C77       1
    x23       C97       1
    x23       C170      1
    x23       C213      1
    x23       C294      1
    x23       C302      1
    x23       C393      1
    x23       C403      1
    x23       C423      1
    x24       __OBJ___  -1
    x24       C71       1
    x24       C131      1
    x24       C165      1
    x24       C172      1
    x24       C275      1
    x24       C320      1
    x24       C366      1
    x24       C390      1
    x24       C511      1
    x25       __OBJ___  -1
    x25       C25       1
    x25       C154      1
    x25       C298      1
    x25       C460      1
    x26       __OBJ___  -1
    x26       C53       1
    x26       C81       1
    x26       C128      1
    x26       C174      1
    x26       C207      1
    x26       C212      1
    x26       C347      1
    x26       C449      1
    x26       C553      1
    x27       __OBJ___  -1
    x27       C9        1
    x27       C12       1
    x27       C17       1
    x27       C81       1
    x27       C118      1
    x27       C128      1
    x27       C301      1
    x27       C327      1
    x28       __OBJ___  -1
    x28       C59       1
    x28       C69       1
    x28       C99       1
    x28       C143      1
    x28       C171      1
    x28       C289      1
    x28       C486      1
    x28       C537      1
    x29       __OBJ___  -1
    x29       C346      1
    x29       C433      1
    x29       C490      1
    x29       C514      1
    x30       __OBJ___  -1
    x30       C113      1
    x30       C281      1
    x30       C318      1
    x30       C386      1
    x30       C387      1
    x30       C394      1
    x30       C441      1
    x30       C550      1
    x31       __OBJ___  -1
    x31       C191      1
    x31       C208      1
    x31       C353      1
    x31       C517      1
    x32       __OBJ___  -1
    x32       C59       1
    x32       C71       1
    x32       C131      1
    x32       C135      1
    x32       C146      1
    x32       C384      1
    x32       C557      1
    x33       __OBJ___  -1
    x33       C212      1
    x33       C260      1
    x34       __OBJ___  -1
    x34       C340      1
    x34       C396      1
    x34       C442      1
    x34       C475      1
    x34       C515      1
    x35       __OBJ___  -1
    x35       C16       1
    x35       C114      1
    x35       C128      1
    x35       C203      1
    x35       C216      1
    x35       C408      1
    x35       C411      1
    x36       __OBJ___  -1
    x36       C58       1
    x36       C180      1
    x36       C223      1
    x36       C354      1
    x36       C394      1
    x36       C428      1
    x36       C466      1
    x36       C506      1
    x37       __OBJ___  -1
    x37       C71       1
    x37       C390      1
    x37       C395      1
    x38       __OBJ___  -1
    x38       C76       1
    x38       C264      1
    x38       C273      1
    x38       C361      1
    x38       C398      1
    x38       C549      1
    x39       __OBJ___  -1
    x39       C43       1
    x39       C72       1
    x39       C178      1
    x39       C258      1
    x39       C320      1
    x39       C372      1
    x39       C390      1
    x39       C410      1
    x39       C472      1
    x39       C527      1
    x40       __OBJ___  -1
    x40       C134      1
    x40       C294      1
    x40       C377      1
    x41       __OBJ___  -1
    x41       C21       1
    x41       C46       1
    x41       C48       1
    x41       C92       1
    x41       C151      1
    x41       C227      1
    x41       C320      1
    x41       C370      1
    x42       __OBJ___  -1
    x42       C53       1
    x42       C139      1
    x42       C166      1
    x42       C243      1
    x42       C332      1
    x42       C391      1
    x42       C499      1
    x42       C502      1
    x42       C546      1
    x43       __OBJ___  -1
    x43       C48       1
    x43       C177      1
    x43       C309      1
    x43       C325      1
    x44       __OBJ___  -1
    x44       C141      1
    x44       C315      1
    x44       C318      1
    x44       C524      1
    x46       __OBJ___  -1
    x46       C21       1
    x46       C330      1
    x46       C493      1
    x47       __OBJ___  -1
    x47       C22       1
    x47       C81       1
    x47       C184      1
    x47       C192      1
    x47       C221      1
    x47       C343      1
    x48       __OBJ___  -1
    x48       C108      1
    x48       C114      1
    x48       C365      1
    x48       C492      1
    x48       C538      1
    x48       C547      1
    x49       __OBJ___  -1
    x49       C10       1
    x49       C46       1
    x49       C83       1
    x49       C183      1
    x49       C279      1
    x49       C443      1
    x49       C533      1
    x49       C558      1
    x50       __OBJ___  -1
    x50       C292      1
    x50       C341      1
    x50       C370      1
    x51       __OBJ___  -1
    x51       C331      1
    x51       C387      1
    x51       C542      1
    x52       __OBJ___  -1
    x52       C180      1
    x52       C225      1
    x52       C275      1
    x52       C408      1
    x52       C416      1
    x52       C438      1
    x52       C497      1
    x54       __OBJ___  -1
    x54       C30       1
    x54       C385      1
    x54       C391      1
    x54       C443      1
    x54       C467      1
    x54       C473      1
    x55       __OBJ___  -1
    x55       C17       1
    x55       C31       1
    x55       C263      1
    x55       C339      1
    x55       C386      1
    x55       C407      1
    x55       C415      1
    x56       __OBJ___  -1
    x56       C508      1
    x56       C533      1
    x57       __OBJ___  -1
    x57       C33       1
    x57       C69       1
    x57       C172      1
    x57       C377      1
    x57       C381      1
    x58       __OBJ___  -1
    x58       C157      1
    x58       C179      1
    x58       C291      1
    x58       C407      1
    x59       __OBJ___  -1
    x59       C14       1
    x59       C135      1
    x59       C182      1
    x59       C243      1
    x59       C246      1
    x59       C497      1
    x59       C539      1
    x60       __OBJ___  -1
    x60       C164      1
    x60       C214      1
    x60       C247      1
    x60       C447      1
    x61       __OBJ___  -1
    x61       C37       1
    x61       C42       1
    x61       C73       1
    x61       C104      1
    x61       C127      1
    x61       C161      1
    x61       C216      1
    x61       C242      1
    x61       C403      1
    x61       C531      1
    x61       C543      1
    x62       __OBJ___  -1
    x62       C170      1
    x62       C196      1
    x62       C341      1
    x62       C481      1
    x63       __OBJ___  -1
    x63       C20       1
    x63       C92       1
    x63       C102      1
    x63       C126      1
    x64       __OBJ___  -1
    x64       C183      1
    x64       C449      1
    x64       C493      1
    x64       C554      1
    x65       __OBJ___  -1
    x65       C127      1
    x65       C133      1
    x65       C193      1
    x65       C232      1
    x65       C381      1
    x65       C535      1
    x66       __OBJ___  -1
    x66       C287      1
    x66       C367      1
    x66       C451      1
    x66       C532      1
    x67       __OBJ___  -1
    x67       C121      1
    x67       C428      1
    x67       C486      1
    x67       C527      1
    x68       __OBJ___  -1
    x68       C29       1
    x68       C186      1
    x68       C279      1
    x68       C319      1
    x68       C361      1
    x68       C509      1
    x68       C543      1
    x68       C551      1
    x70       __OBJ___  -1
    x70       C83       1
    x70       C183      1
    x70       C283      1
    x71       __OBJ___  -1
    x71       C42       1
    x71       C263      1
    x72       __OBJ___  -1
    x72       C110      1
    x72       C269      1
    x73       __OBJ___  -1
    x73       C395      1
    x73       C483      1
    x74       __OBJ___  -1
    x74       C25       1
    x74       C27       1
    x74       C30       1
    x74       C31       1
    x75       __OBJ___  -1
    x75       C178      1
    x75       C240      1
    x75       C323      1
    x75       C355      1
    x75       C477      1
    x75       C489      1
    x76       __OBJ___  -1
    x76       C20       1
    x76       C74       1
    x76       C410      1
    x77       __OBJ___  -1
    x77       C93       1
    x77       C490      1
    x78       __OBJ___  -1
    x78       C76       1
    x78       C282      1
    x78       C412      1
    x78       C549      1
    x79       __OBJ___  -1
    x79       C105      1
    x79       C248      1
    x79       C306      1
    x79       C324      1
    x79       C340      1
    x79       C379      1
    x80       __OBJ___  -1
    x80       C74       1
    x80       C159      1
    x80       C538      1
    x81       __OBJ___  -1
    x81       C154      1
    x81       C236      1
    x81       C346      1
    x83       __OBJ___  -1
    x83       C82       1
    x83       C515      1
    x84       __OBJ___  -1
    x84       C104      1
    x84       C460      1
    x84       C492      1
    x84       C550      1
    x85       __OBJ___  -1
    x85       C2        1
    x85       C186      1
    x85       C249      1
    x85       C301      1
    x85       C427      1
    x85       C437      1
    x86       __OBJ___  -1
    x86       C270      1
    x86       C317      1
    x86       C331      1
    x86       C539      1
    x87       __OBJ___  -1
    x87       C40       1
    x87       C162      1
    x87       C174      1
    x87       C298      1
    x88       __OBJ___  -1
    x88       C32       1
    x88       C324      1
    x90       __OBJ___  -1
    x90       C26       1
    x90       C276      1
    x90       C281      1
    x90       C544      1
    x91       __OBJ___  -1
    x91       C427      1
    x91       C532      1
    x92       __OBJ___  -1
    x92       C168      1
    x92       C372      1
    x92       C454      1
    x92       C552      1
    x93       __OBJ___  -1
    x93       C124      1
    x93       C291      1
    x93       C559      1
    x94       __OBJ___  -1
    x94       C23       1
    x94       C72       1
    x94       C113      1
    x94       C413      1
    x95       __OBJ___  -1
    x95       C63       1
    x95       C132      1
    x95       C309      1
    x97       __OBJ___  -1
    x97       C26       1
    x97       C65       1
    x97       C143      1
    x97       C227      1
    x97       C561      1
    x98       __OBJ___  -1
    x98       C34       1
    x98       C277      1
    x98       C396      1
    x98       C420      1
    x98       C429      1
    x98       C436      1
    x98       C500      1
    x98       C520      1
    x98       C559      1
    x99       __OBJ___  -1
    x99       C12       1
    x99       C366      1
    x100      __OBJ___  -1
    x100      C24       1
    x100      C209      1
    x100      C323      1
    x100      C327      1
    x100      C354      1
    x101      __OBJ___  -1
    x101      C438      1
    x101      C472      1
    x101      C561      1
    x102      __OBJ___  -1
    x102      C60       1
    x102      C184      1
    x102      C307      1
    x103      __OBJ___  -1
    x103      C236      1
    x103      C347      1
    x104      __OBJ___  -1
    x104      C14       1
    x104      C24       1
    x104      C102      1
    x104      C196      1
    x105      __OBJ___  -1
    x105      C36       1
    x105      C193      1
    x105      C436      1
    x105      C534      1
    x106      __OBJ___  -1
    x106      C58       1
    x106      C326      1
    x106      C514      1
    x107      __OBJ___  -1
    x107      C77       1
    x107      C96       1
    x107      C344      1
    x107      C450      1
    x108      __OBJ___  -1
    x108      C118      1
    x108      C189      1
    x108      C393      1
    x108      C398      1
    x109      __OBJ___  -1
    x109      C33       1
    x109      C63       1
    x109      C219      1
    x109      C477      1
    x109      C541      1
    x110      __OBJ___  -1
    x110      C97       1
    x110      C223      1
    x110      C277      1
    x110      C425      1
    x111      __OBJ___  -1
    x111      C23       1
    x111      C146      1
    x111      C150      1
    x112      __OBJ___  -1
    x112      C65       1
    x112      C119      1
    x112      C166      1
    x113      __OBJ___  -1
    x113      C120      1
    x113      C126      1
    x113      C249      1
    x113      C499      1
    x114      __OBJ___  -1
    x114      C201      1
    x114      C219      1
    x114      C290      1
    x114      C462      1
    x114      C557      1
    x116      __OBJ___  -1
    x116      C302      1
    x116      C500      1
    x116      C553      1
    x117      __OBJ___  -1
    x117      C228      1
    x117      C312      1
    x117      C520      1
    x118      __OBJ___  -1
    x118      C8        1
    x118      C332      1
    x118      C359      1
    x118      C416      1
    x119      __OBJ___  -1
    x119      C258      1
    x119      C429      1
    x119      C441      1
    x120      __OBJ___  -1
    x120      C221      1
    x120      C240      1
    x120      C270      1
    x121      __OBJ___  -1
    x121      C9        1
    x121      C122      1
    x121      C187      1
    x121      C345      1
    x121      C444      1
    x122      __OBJ___  -1
    x122      C54       1
    x122      C253      1
    x122      C467      1
    x123      __OBJ___  -1
    x123      C122      1
    x123      C541      1
    x123      C545      1
    x124      __OBJ___  -1
    x124      C235      1
    x124      C248      1
    x124      C273      1
    x124      C447      1
    x124      C476      1
    x125      __OBJ___  -1
    x125      C13       1
    x125      C246      1
    x126      __OBJ___  -1
    x126      C61       1
    x126      C235      1
    x127      __OBJ___  -1
    x127      C151      1
    x127      C171      1
    x128      __OBJ___  -1
    x128      C39       1
    x128      C282      1
    x128      C545      1
    x129      __OBJ___  -1
    x129      C364      1
    x129      C383      1
    x129      C480      1
    x129      C551      1
    x130      __OBJ___  -1
    x130      C66       1
    x130      C420      1
    x130      C502      1
    x131      __OBJ___  -1
    x131      C10       1
    x131      C34       1
    x131      C119      1
    x131      C537      1
    x132      __OBJ___  -1
    x132      C34       1
    x132      C119      1
    x132      C232      1
    x133      __OBJ___  -1
    x133      C542      1
    x133      C558      1
    x134      __OBJ___  -1
    x134      C191      1
    x134      C528      1
    x135      __OBJ___  -1
    x135      C203      1
    x135      C220      1
    x135      C462      1
    x136      __OBJ___  -1
    x136      C127      1
    x136      C225      1
    x137      __OBJ___  -1
    x137      C222      1
    x137      C319      1
    x137      C344      1
    x138      __OBJ___  -1
    x138      C161      1
    x138      C401      1
    x139      __OBJ___  -1
    x139      C209      1
    x139      C326      1
    x139      C336      1
    x139      C517      1
    x140      __OBJ___  -1
    x140      C50       1
    x140      C315      1
    x140      C339      1
    x140      C506      1
    x140      C519      1
    x141      __OBJ___  -1
    x141      C80       1
    x141      C201      1
    x143      __OBJ___  -1
    x143      C22       1
    x143      C182      1
    x144      __OBJ___  -1
    x144      C73       1
    x144      C222      1
    x144      C552      1
    x145      __OBJ___  -1
    x145      C61       1
    x145      C139      1
    x145      C556      1
    x146      __OBJ___  -1
    x146      C37       1
    x146      C40       1
    x147      __OBJ___  -1
    x147      C99       1
    x147      C335      1
    x147      C491      1
    x147      C509      1
    x148      __OBJ___  -1
    x148      C105      1
    x148      C384      1
    x148      C536      1
    x148      C547      1
    x149      __OBJ___  -1
    x149      C336      1
    x149      C411      1
    x149      C473      1
    x150      __OBJ___  -1
    x150      C137      1
    x150      C444      1
    x150      C519      1
    MARKER    'MARKER'                 'INTEND'
RHS
    RHS       __OBJ___  5
    RHS       C2        1
    RHS       C8        1
    RHS       C9        1
    RHS       C10       1
    RHS       C11       1
    RHS       C12       1
    RHS       C13       1
    RHS       C14       1
    RHS       C16       1
    RHS       C17       1
    RHS       C20       1
    RHS       C21       1
    RHS       C22       1
    RHS       C23       1
    RHS       C24       1
    RHS       C25       1
    RHS       C26       1
    RHS       C27       1
    RHS       C29       1
    RHS       C30       1
    RHS       C31       1
    RHS       C32       1
    RHS       C33       1
    RHS       C34       1
    RHS       C36       1
    RHS       C37       1
    RHS       C39       1
    RHS       C40       1
    RHS       C41       1
    RHS       C42       1
    RHS       C43       1
    RHS       C46       1
    RHS       C48       1
    RHS       C50       1
    RHS       C53       1
    RHS       C54       1
    RHS       C58       1
    RHS       C59       1
    RHS       C60       1
    RHS       C61       1
    RHS       C63       1
    RHS       C65       1
    RHS       C66       1
    RHS       C69       1
    RHS       C71       1
    RHS       C72       1
    RHS       C73       1
    RHS       C74       1
    RHS       C76       1
    RHS       C77       1
    RHS       C80       1
    RHS       C81       1
    RHS       C82       1
    RHS       C83       1
    RHS       C92       1
    RHS       C93       1
    RHS       C96       1
    RHS       C97       1
    RHS       C99       1
    RHS       C102      1
    RHS       C104      1
    RHS       C105      1
    RHS       C108      1
    RHS       C110      1
    RHS       C113      1
    RHS       C114      1
    RHS       C118      1
    RHS       C119      1
    RHS       C120      1
    RHS       C121      1
    RHS       C122      1
    RHS       C123      1
    RHS       C124      1
    RHS       C125      1
    RHS       C126      1
    RHS       C127      1
    RHS       C128      1
    RHS       C131      1
    RHS       C132      1
    RHS       C133      1
    RHS       C134      1
    RHS       C135      1
    RHS       C137      1
    RHS       C139      1
    RHS       C141      1
    RHS       C143      1
    RHS       C146      1
    RHS       C150      1
    RHS       C151      1
    RHS       C154      1
    RHS       C157      1
    RHS       C159      1
    RHS       C161      1
    RHS       C162      1
    RHS       C164      1
    RHS       C165      1
    RHS       C166      1
    RHS       C168      1
    RHS       C170      1
    RHS       C171      1
    RHS       C172      1
    RHS       C173      1
    RHS       C174      1
    RHS       C177      1
    RHS       C178      1
    RHS       C179      1
    RHS       C180      1
    RHS       C182      1
    RHS       C183      1
    RHS       C184      1
    RHS       C186      1
    RHS       C187      1
    RHS       C189      1
    RHS       C191      1
    RHS       C192      1
    RHS       C193      1
    RHS       C196      1
    RHS       C199      1
    RHS       C201      1
    RHS       C203      1
    RHS       C207      1
    RHS       C208      1
    RHS       C209      1
    RHS       C212      1
    RHS       C213      1
    RHS       C214      1
    RHS       C216      1
    RHS       C219      1
    RHS       C220      1
    RHS       C221      1
    RHS       C222      1
    RHS       C223      1
    RHS       C225      1
    RHS       C227      1
    RHS       C228      1
    RHS       C232      1
    RHS       C235      1
    RHS       C236      1
    RHS       C240      1
    RHS       C242      1
    RHS       C243      1
    RHS       C246      1
    RHS       C247      1
    RHS       C248      1
    RHS       C249      1
    RHS       C253      1
    RHS       C258      1
    RHS       C260      1
    RHS       C263      1
    RHS       C264      1
    RHS       C267      1
    RHS       C269      1
    RHS       C270      1
    RHS       C273      1
    RHS       C275      1
    RHS       C276      1
    RHS       C277      1
    RHS       C279      1
    RHS       C281      1
    RHS       C282      1
    RHS       C283      1
    RHS       C287      1
    RHS       C289      1
    RHS       C290      1
    RHS       C291      1
    RHS       C292      1
    RHS       C294      1
    RHS       C298      1
    RHS       C301      1
    RHS       C302      1
    RHS       C306      1
    RHS       C307      1
    RHS       C309      1
    RHS       C312      1
    RHS       C315      1
    RHS       C317      1
    RHS       C318      1
    RHS       C319      1
    RHS       C320      1
    RHS       C323      1
    RHS       C324      1
    RHS       C325      1
    RHS       C326      1
    RHS       C327      1
    RHS       C330      1
    RHS       C331      1
    RHS       C332      1
    RHS       C335      1
    RHS       C336      1
    RHS       C339      1
    RHS       C340      1
    RHS       C341      1
    RHS       C343      1
    RHS       C344      1
    RHS       C345      1
    RHS       C346      1
    RHS       C347      1
    RHS       C353      1
    RHS       C354      1
    RHS       C355      1
    RHS       C359      1
    RHS       C361      1
    RHS       C364      1
    RHS       C365      1
    RHS       C366      1
    RHS       C367      1
    RHS       C370      1
    RHS       C372      1
    RHS       C376      1
    RHS       C377      1
    RHS       C379      1
    RHS       C381      1
    RHS       C383      1
    RHS       C384      1
    RHS       C385      1
    RHS       C386      1
    RHS       C387      1
    RHS       C390      1
    RHS       C391      1
    RHS       C393      1
    RHS       C394      1
    RHS       C395      1
    RHS       C396      1
    RHS       C398      1
    RHS       C401      1
    RHS       C403      1
    RHS       C407      1
    RHS       C408      1
    RHS       C410      1
    RHS       C411      1
    RHS       C412      1
    RHS       C413      1
    RHS       C415      1
    RHS       C416      1
    RHS       C420      1
    RHS       C423      1
    RHS       C425      1
    RHS       C427      1
    RHS       C428      1
    RHS       C429      1
    RHS       C433      1
    RHS       C436      1
    RHS       C437      1
    RHS       C438      1
    RHS       C441      1
    RHS       C442      1
    RHS       C443      1
    RHS       C444      1
    RHS       C445      1
    RHS       C446      1
    RHS       C447      1
    RHS       C449      1
    RHS       C450      1
    RHS       C451      1
    RHS       C454      1
    RHS       C455      1
    RHS       C460      1
    RHS       C462      1
    RHS       C466      1
    RHS       C467      1
    RHS       C472      1
    RHS       C473      1
    RHS       C475      1
    RHS       C476      1
    RHS       C477      1
    RHS       C480      1
    RHS       C481      1
    RHS       C483      1
    RHS       C485      1
    RHS       C486      1
    RHS       C489      1
    RHS       C490      1
    RHS       C491      1
    RHS       C492      1
    RHS       C493      1
    RHS       C497      1
    RHS       C499      1
    RHS       C500      1
    RHS       C502      1
    RHS       C506      1
    RHS       C508      1
    RHS       C509      1
    RHS       C510      1
    RHS       C511      1
    RHS       C514      1
    RHS       C515      1
    RHS       C517      1
    RHS       C519      1
    RHS       C520      1
    RHS       C524      1
    RHS       C527      1
    RHS       C528      1
    RHS       C531      1
    RHS       C532      1
    RHS       C533      1
    RHS       C534      1
    RHS       C535      1
    RHS       C536      1
    RHS       C537      1
    RHS       C538      1
    RHS       C539      1
    RHS       C540      1
    RHS       C541      1
    RHS       C542      1
    RHS       C543      1
    RHS       C544      1
    RHS       C545      1
    RHS       C546      1
    RHS       C547      1
    RHS       C549      1
    RHS       C550      1
    RHS       C551      1
    RHS       C552      1
    RHS       C553      1
    RHS       C554      1
    RHS       C556      1
    RHS       C557      1
    RHS       C558      1
    RHS       C559      1
    RHS       C561      1
BOUNDS
 UP BOUND     x3        1
 UP BOUND     x4        1
 UP BOUND     x7        1
 UP BOUND     x9        1
 UP BOUND     x10       1
 UP BOUND     x11       1
 UP BOUND     x12       1
 UP BOUND     x13       1
 UP BOUND     x14       1
 UP BOUND     x16       1
 UP BOUND     x17       1
 UP BOUND     x18       1
 UP BOUND     x19       1
 UP BOUND     x20       1
 UP BOUND     x22       1
 UP BOUND     x23       1
 UP BOUND     x24       1
 UP BOUND     x25       1
 UP BOUND     x26       1
 UP BOUND     x27       1
 UP BOUND     x28       1
 UP BOUND     x29       1
 UP BOUND     x30       1
 UP BOUND     x31       1
 UP BOUND     x32       1
 UP BOUND     x33       1
 UP BOUND     x34       1
 UP BOUND     x35       1
 UP BOUND     x36       1
 UP BOUND     x37       1
 UP BOUND     x38       1
 UP BOUND     x39       1
 UP BOUND     x40       1
 UP BOUND     x41       1
 UP BOUND     x42       1
 UP BOUND     x43       1
 UP BOUND     x44       1
 UP BOUND     x46       1
 UP BOUND     x47       1
 UP BOUND     x48       1
 UP BOUND     x49       1
 UP BOUND     x50       1
 UP BOUND     x51       1
 UP BOUND     x52       1
 UP BOUND     x54       1
 UP BOUND     x55       1
 UP BOUND     x56       1
 UP BOUND     x57       1
 UP BOUND     x58       1
 UP BOUND     x59       1
 UP BOUND     x60       1
 UP BOUND     x61       1
 UP BOUND     x62       1
 UP BOUND     x63       1
 UP BOUND     x64       1
 UP BOUND     x65       1
 UP BOUND     x66       1
 UP BOUND     x67       1
 UP BOUND     x68       1
 UP BOUND     x70       1
 UP BOUND     x71       1
 UP BOUND     x72       1
 UP BOUND     x73       1
 UP BOUND     x74       1
 UP BOUND     x75       1
 UP BOUND     x76       1
 UP BOUND     x77       1
 UP BOUND     x78       1
 UP BOUND     x79       1
 UP BOUND     x80       1
 UP BOUND     x81       1
 UP BOUND     x83       1
 UP BOUND     x84       1
 UP BOUND     x85       1
 UP BOUND     x86       1
 UP BOUND     x87       1
 UP BOUND     x88       1
 UP BOUND     x90       1
 UP BOUND     x91       1
 UP BOUND     x92       1
 UP BOUND     x93       1
 UP BOUND     x94       1
 UP BOUND     x95       1
 UP BOUND     x97       1
 UP BOUND     x98       1
 UP BOUND     x99       1
 UP BOUND     x100      1
 UP BOUND     x101      1
 UP BOUND     x102      1
 UP BOUND     x103      1
 UP BOUND     x104      1
 UP BOUND     x105      1
 UP BOUND     x106      1
 UP BOUND     x107      1
 UP BOUND     x108      1
 UP BOUND     x109      1
 UP BOUND     x110      1
 UP BOUND     x111      1
 UP BOUND     x112      1
 UP BOUND     x113      1
 UP BOUND     x114      1
 UP BOUND     x116      1
 UP BOUND     x117      1
 UP BOUND     x118      1
 UP BOUND     x119      1
 UP BOUND     x120      1
 UP BOUND     x121      1
 UP BOUND     x122      1
 UP BOUND     x123      1
 UP BOUND     x124      1
 UP BOUND     x125      1
 UP BOUND     x126      1
 UP BOUND     x127      1
 UP BOUND     x128      1
 UP BOUND     x129      1
 UP BOUND     x130      1
 UP BOUND     x131      1
 UP BOUND     x132      1
 UP BOUND     x133      1
 UP BOUND     x134      1
 UP BOUND     x135      1
 UP BOUND     x136      1
 UP BOUND     x137      1
 UP BOUND     x138      1
 UP BOUND     x139      1
 UP BOUND     x140      1
 UP BOUND     x141      1
 UP BOUND     x143      1
 UP BOUND     x144      1
 UP BOUND     x145      1
 UP BOUND     x146      1
 UP BOUND     x147      1
 UP BOUND     x148      1
 UP BOUND     x149      1
 UP BOUND     x150      1
ENDATA
